14850.0
1 0 1 0 0 1 0 1 1 1 0 1 0 1 1 0 0 1 0 0 1 1 0 0 1 1 0 1 0 0 
13 11 20 2 20 5 2 24 14 0 24 8 8 20 17 14 14 17 25 11 2 0 24 17 5 8 2 24 5 9 5 25 13 25 20 20 24 24 0 14 0 14 9 8 24 14 0 13 27 8 5 14 14 5 13 20 17 27 0 14 0 5 20 11 11 11 24 0 24 9 13 13 11 17 9 8 9 20 14 9 20 7 20 17 17 17 17 7 20 5 2 24 7 11 17 5 2 2 21 20 8 17 17 25 2 25 17 11 14 8 14 2 2 11 11 21 24 24 24 5 5 8 25 13 8 0 5 9 0 21 0 11 24 5 8 14 17 5 20 17 0 8 20 14 8 25 25 5 2 24 